solution status: time limit reached
objective value:                             -563.526
x78                                                 1 	(obj:-10)
x137                                                1 	(obj:-16.2)
x145                                                1 	(obj:-16.2)
x324                                                1 	(obj:-17.8)
x333                                                1 	(obj:-27.4)
x463                                                1 	(obj:-35)
x518                                                1 	(obj:-4.114)
x739                                                1 	(obj:-19.8)
x750                                                1 	(obj:-19.8)
x814                                                1 	(obj:-24)
x897                                                1 	(obj:-21)
x1092                                               1 	(obj:-21)
x1101                                               1 	(obj:-18.6)
x1284                                               1 	(obj:-27.8)
x1292                                               1 	(obj:-18.6)
x1440                                               1 	(obj:-24)
x1447                                               1 	(obj:-12)
x1634                                               1 	(obj:-24)
x1645                                               1 	(obj:-12)
x1750                                               1 	(obj:-5.68)
x1789                                               1 	(obj:-14.4)
x1899                                               1 	(obj:-25)
x2023                                               1 	(obj:-10)
x2028                                               1 	(obj:-10)
x2198                                               1 	(obj:-9.262)
x2227                                               1 	(obj:-35)
x2317                                               1 	(obj:-11.92)
x2347                               0.999999999999999 	(obj:-20)
x2462                                               1 	(obj:-29)
x2568                                               1 	(obj:-30)
x2580                                               1 	(obj:-26)
x2699                                               1 	(obj:-19.8)
x2711                                               1 	(obj:-19.8)
x2718                                               1 	(obj:-17.8)
x2776                                               1 	(obj:-19.8)
x2779                                               1 	(obj:-19.8)
x2786                                               1 	(obj:-19.8)
x2810                                               1 	(obj:-24)
x2816                                               1 	(obj:-40)
x2829                                               1 	(obj:-40)
x2838                                               1 	(obj:-11.2)
x2843                                               1 	(obj:-11.2)
x2847                                               1 	(obj:-20)
x2850                                               1 	(obj:-40)
x2865                                               1 	(obj:-10)
x2866                                               1 	(obj:-10)
x2872                                               1 	(obj:-30)
x2884                                               1 	(obj:-33)
x2886                                               1 	(obj:-33)
x2887                                               1 	(obj:-10)
x2900                                               1 	(obj:-16.8)
x2901                                               1 	(obj:-16.4)
x2902                                               1 	(obj:-16.8)
x2903                                               1 	(obj:-16.8)
x2908                                               1 	(obj:-30)
x2909                                               1 	(obj:-30)
x2918                                               1 	(obj:-30)
x2919                                               1 	(obj:-23.8)
x2923                                               1 	(obj:21.2)
x2924                                               1 	(obj:22.74)
x2925                                               1 	(obj:19.56)
x2926                                               1 	(obj:19.83)
x2927                                               1 	(obj:22.57)
x2928                                               1 	(obj:19.83)
x2929                                               1 	(obj:23.22)
x2930                                               1 	(obj:18.08)
x2931                                               1 	(obj:20.88)
x2932                                               1 	(obj:19.71)
x2933                                               1 	(obj:14.67)
x2934                                               1 	(obj:23.46)
x2935                                               1 	(obj:24.58)
x2936                                               1 	(obj:28.05)
x2937                                               1 	(obj:28.72)
x2938                                               1 	(obj:29.71)
x2939                                               1 	(obj:32.13)
x2940                                               1 	(obj:33.88)
x2941                                               1 	(obj:36.15)
x2942                                               1 	(obj:37.42)
x2943                                               1 	(obj:38.31)
x2944                                               1 	(obj:34.18)
x2945                                               1 	(obj:36.37)
x2946                                               1 	(obj:36.6)
x2995                                               1 	(obj:0)
x3052                                               1 	(obj:0)
x3199                                               1 	(obj:0)
x3205                                               1 	(obj:0)
x3298                                               1 	(obj:0)
x3407                                               1 	(obj:0)
x3435                                               1 	(obj:0)
x3494                                               1 	(obj:0)
x3590                                               1 	(obj:0)
x3727                                               1 	(obj:0)
x3795                                               1 	(obj:0)
x3879                                               1 	(obj:0)
x3952                                               1 	(obj:0)
x4038                                               1 	(obj:0)
x4171                                               1 	(obj:0)
x4172                                               1 	(obj:0)
x4309                                               1 	(obj:0)
x4328                                               1 	(obj:0)
x4406                                               1 	(obj:0)
x4553                                               1 	(obj:0)
x4596                                               1 	(obj:0)
x4671                                               1 	(obj:0)
x4767                                               1 	(obj:0)
x4852                                               1 	(obj:0)
x4866                               0.999999999999999 	(obj:0)
x4925                                               1 	(obj:0)
x5043                                               1 	(obj:0)
x5049                                               1 	(obj:0)
x5129                                               1 	(obj:0)
x5140                                               1 	(obj:0)
x5202                                               1 	(obj:0)
x5205                                               1 	(obj:0)
x5231                                               1 	(obj:0)
x5234                                               1 	(obj:0)
x5246                                               1 	(obj:0)
x5252                                               1 	(obj:0)
x5260                                               1 	(obj:0)
x5273                                               1 	(obj:0)
x5277                                               1 	(obj:0)
x5280                                               1 	(obj:0)
x5293                                               1 	(obj:0)
x5298                                               1 	(obj:0)
x5304                                               1 	(obj:0)
x5305                                               1 	(obj:0)
x5311                                               1 	(obj:0)
x5318                                               1 	(obj:0)
x5320                                               1 	(obj:0)
x5321                                               1 	(obj:0)
x2948                                39.1620000000003 	(obj:0)
x2947                                         602.688 	(obj:0)
